(declare-fun bvlambda_6_ () (_ BitVec 5))
(declare-fun bvlambda_8_ () (_ BitVec 2))
(declare-fun bvlambda_9_ ()Bool         )
(declare-fun a65 () (Array (_ BitVec 1) (_ BitVec 14)))
(assert
(let (($e84 (concat bvlambda_8_ bvlambda_6_)))
(let (($e85 (concat $e84 false      )))
(let (($e86 (concat $e85 bvlambda_8_)))
(let (($e87 (concat $e86 bvlambda_9_)))
(let (($e88 (concat $e87 bvlambda_8_ )))
(let (($e89 (concat $e88 bvlambda_9_ )))
(let (($e101 (concat $e85  bvlambda_9_ )))
(let (($e109 (concat        bvlambda_6_ $e101)))
(let (($e112 (store a65 true        $e109)))
(let (($e113 (store $e112 bvlambda_9_ $e89)))
(let (($e114 (select $e113 true       )))
                  (bvult $e114 $e89 )
                                                                                                                                                                                                                                                                                                                                                                                                                                                                                                                                                                                                                                                                                                                                                                                                                                                                                                                                                                                                                                                                                                                                                                                                                                                                                                                                                                                                                                                                              )))  )       )           ))))))                                          )
